robust/generate/spp_dkp_Lefebvre_et_al_2026/src/shortest_path_5_6.kp
48
92

[0.1 5.13 1.64 1.72 4.55 1.87 4.97 2.57 3.15 2.05 0.65 0.82 2.56 4.21 2.65 3.41]

[51 25 23 10 33 67 78 75 83 33 49 92 36 9 83 63]
