robust/generate/spp_dkp_Lefebvre_et_al_2026/src/shortest_path_5_6.lp
\ Model sp_5_6
\ LP format - for model browsing. Use MPS format to capture full model detail.
\ Signature: 0x6daf66c4acd85796
Minimize
  62.27 y[0,1] + 35 y[0,2] + 68.88 y[0,3] + 17.09 y[0,4] + 62.27 y[1,0]
   + 37.2 y[1,3] + 67.18 y[1,4] + 35 y[2,0] + 62.43 y[2,3] + 51.62 y[2,4]
   + 68.88 y[3,0] + 37.2 y[3,1] + 62.43 y[3,2] + 17.09 y[4,0]
   + 67.18 y[4,1] + 51.62 y[4,2] + 6.227 r[0,1] + 3.5 r[0,2] + 6.888 r[0,3]
   + 1.709 r[0,4] + 6.227 r[1,0] + 3.72 r[1,3] + 6.718 r[1,4] + 3.5 r[2,0]
   + 6.243 r[2,3] + 5.162 r[2,4] + 6.888 r[3,0] + 3.72 r[3,1]
   + 6.243 r[3,2] + 1.709 r[4,0] + 6.718 r[4,1] + 5.162 r[4,2]
Subject To
 flow_cons_inner_nodes[0]: - y[0,1] - y[0,2] - y[0,3] - y[0,4] + y[1,0]
   + y[2,0] + y[3,0] + y[4,0] = 0
 flow_cons_inner_nodes[1]: y[0,1] - y[1,0] - y[1,3] - y[1,4] + y[3,1]
   + y[4,1] = 0
 flow_cons_inner_nodes[2]: y[0,2] - y[2,0] - y[2,3] - y[2,4] + y[3,2]
   + y[4,2] = 0
 flow_cons_source: - y[0,3] - y[1,3] - y[2,3] + y[3,0] + y[3,1] + y[3,2]
   = 1
 flow_cons_target: y[0,4] + y[1,4] + y[2,4] - y[4,0] - y[4,1] - y[4,2] = 1
 primal_lower: - 0.1 y[0,1] - 5.13 y[0,2] - 1.64 y[0,3] - 1.72 y[0,4]
   - 4.55 y[1,0] - 1.87 y[1,3] - 4.97 y[1,4] - 2.57 y[2,0] - 3.15 y[2,3]
   - 2.05 y[2,4] - 0.65 y[3,0] - 0.82 y[3,1] - 2.56 y[3,2] - 4.21 y[4,0]
   - 2.65 y[4,1] - 3.41 y[4,2] + 51 u[0,1] + 25 u[0,2] + 23 u[0,3]
   + 10 u[0,4] + 33 u[1,0] + 67 u[1,3] + 78 u[1,4] + 75 u[2,0] + 83 u[2,3]
   + 33 u[2,4] + 49 u[3,0] + 92 u[3,1] + 36 u[3,2] + 9 u[4,0] + 83 u[4,1]
   + 63 u[4,2] <= 92
 mccormick1[0,1]: - u[0,1] + r[0,1] <= 0
 mccormick1[0,2]: - u[0,2] + r[0,2] <= 0
 mccormick1[0,3]: - u[0,3] + r[0,3] <= 0
 mccormick1[0,4]: - u[0,4] + r[0,4] <= 0
 mccormick1[1,0]: - u[1,0] + r[1,0] <= 0
 mccormick1[1,3]: - u[1,3] + r[1,3] <= 0
 mccormick1[1,4]: - u[1,4] + r[1,4] <= 0
 mccormick1[2,0]: - u[2,0] + r[2,0] <= 0
 mccormick1[2,3]: - u[2,3] + r[2,3] <= 0
 mccormick1[2,4]: - u[2,4] + r[2,4] <= 0
 mccormick1[3,0]: - u[3,0] + r[3,0] <= 0
 mccormick1[3,1]: - u[3,1] + r[3,1] <= 0
 mccormick1[3,2]: - u[3,2] + r[3,2] <= 0
 mccormick1[4,0]: - u[4,0] + r[4,0] <= 0
 mccormick1[4,1]: - u[4,1] + r[4,1] <= 0
 mccormick1[4,2]: - u[4,2] + r[4,2] <= 0
 mccormick2[0,1]: - y[0,1] + r[0,1] <= 0
 mccormick2[0,2]: - y[0,2] + r[0,2] <= 0
 mccormick2[0,3]: - y[0,3] + r[0,3] <= 0
 mccormick2[0,4]: - y[0,4] + r[0,4] <= 0
 mccormick2[1,0]: - y[1,0] + r[1,0] <= 0
 mccormick2[1,3]: - y[1,3] + r[1,3] <= 0
 mccormick2[1,4]: - y[1,4] + r[1,4] <= 0
 mccormick2[2,0]: - y[2,0] + r[2,0] <= 0
 mccormick2[2,3]: - y[2,3] + r[2,3] <= 0
 mccormick2[2,4]: - y[2,4] + r[2,4] <= 0
 mccormick2[3,0]: - y[3,0] + r[3,0] <= 0
 mccormick2[3,1]: - y[3,1] + r[3,1] <= 0
 mccormick2[3,2]: - y[3,2] + r[3,2] <= 0
 mccormick2[4,0]: - y[4,0] + r[4,0] <= 0
 mccormick2[4,1]: - y[4,1] + r[4,1] <= 0
 mccormick2[4,2]: - y[4,2] + r[4,2] <= 0
 mccormick3[0,1]: - y[0,1] - u[0,1] + r[0,1] >= -1
 mccormick3[0,2]: - y[0,2] - u[0,2] + r[0,2] >= -1
 mccormick3[0,3]: - y[0,3] - u[0,3] + r[0,3] >= -1
 mccormick3[0,4]: - y[0,4] - u[0,4] + r[0,4] >= -1
 mccormick3[1,0]: - y[1,0] - u[1,0] + r[1,0] >= -1
 mccormick3[1,3]: - y[1,3] - u[1,3] + r[1,3] >= -1
 mccormick3[1,4]: - y[1,4] - u[1,4] + r[1,4] >= -1
 mccormick3[2,0]: - y[2,0] - u[2,0] + r[2,0] >= -1
 mccormick3[2,3]: - y[2,3] - u[2,3] + r[2,3] >= -1
 mccormick3[2,4]: - y[2,4] - u[2,4] + r[2,4] >= -1
 mccormick3[3,0]: - y[3,0] - u[3,0] + r[3,0] >= -1
 mccormick3[3,1]: - y[3,1] - u[3,1] + r[3,1] >= -1
 mccormick3[3,2]: - y[3,2] - u[3,2] + r[3,2] >= -1
 mccormick3[4,0]: - y[4,0] - u[4,0] + r[4,0] >= -1
 mccormick3[4,1]: - y[4,1] - u[4,1] + r[4,1] >= -1
 mccormick3[4,2]: - y[4,2] - u[4,2] + r[4,2] >= -1
Bounds
Binaries
 y[0,1] y[0,2] y[0,3] y[0,4] y[1,0] y[1,3] y[1,4] y[2,0] y[2,3] y[2,4]
 y[3,0] y[3,1] y[3,2] y[4,0] y[4,1] y[4,2] u[0,1] u[0,2] u[0,3] u[0,4]
 u[1,0] u[1,3] u[1,4] u[2,0] u[2,3] u[2,4] u[3,0] u[3,1] u[3,2] u[4,0]
 u[4,1] u[4,2] r[0,1] r[0,2] r[0,3] r[0,4] r[1,0] r[1,3] r[1,4] r[2,0]
 r[2,3] r[2,4] r[3,0] r[3,1] r[3,2] r[4,0] r[4,1] r[4,2]
End
